NAME JobShopModel
ROWS
 N  OBJ
 G  c0      
 E  c1      
 E  c2      
 E  c3      
 E  c4      
 E  c5      
 E  c6      
 E  c7      
 E  c8      
 E  c9      
 E  c10     
 E  c11     
 E  c12     
 L  c13     
 L  c14     
 L  c15     
 L  c16     
 L  c17     
 L  c18     
 L  c19     
 L  c20     
 L  c21     
 L  c22     
 L  c23     
 L  c24     
 L  c25     
 L  c26     
 L  c27     
 L  c28     
 L  c29     
 L  c30     
 L  c31     
 L  c32     
 G  c33     
 G  c34     
 G  c35     
 G  c36     
 G  c37     
 G  c38     
 G  c39     
 G  c40     
 G  c41     
 G  c42     
 G  c43     
 G  c44     
 G  c45     
 G  c46     
 G  c47     
 G  c48     
 G  c49     
 G  c50     
 G  c51     
 G  c52     
 G  c53     
 G  c54     
 G  c55     
 G  c56     
 G  c57     
 G  c58     
 G  c59     
 G  c60     
 G  c61     
 G  c62     
 G  c63     
 G  c64     
 G  c65     
 G  c66     
 G  c67     
 G  c68     
 G  c69     
 G  c70     
 G  c71     
 G  c72     
 G  c73     
 G  c74     
 G  c75     
 G  c76     
 G  c77     
 G  c78     
 G  c79     
 G  c80     
 G  c81     
 G  c82     
 G  c83     
 G  c84     
 G  c85     
 G  c86     
 G  c87     
 G  c88     
 G  c89     
 G  c90     
 G  c91     
 G  c92     
 G  c93     
 G  c94     
 G  c95     
 G  c96     
 G  c97     
 G  c98     
 G  c99     
 G  c100    
 G  c101    
 G  c102    
 G  c103    
 G  c104    
 G  c105    
 G  c106    
 G  c107    
 G  c108    
 G  c109    
 G  c110    
 G  c111    
 G  c112    
 G  c113    
 G  c114    
 G  c115    
 G  c116    
 G  c117    
 G  c118    
 G  c119    
 G  c120    
 G  c121    
 G  c122    
 G  c123    
 G  c124    
 G  c125    
 G  c126    
 G  c127    
 G  c128    
 G  c129    
 G  c130    
 G  c131    
COLUMNS
    MARKER    'MARKER'                 'INTORG'
    y[0,0,3]  c0        -150
    y[0,0,3]  c1        1
    y[0,0,3]  c13       -10000000
    y[0,0,3]  c41       -10000000
    y[0,0,3]  c42       -10000000
    y[0,0,3]  c45       -10000000
    y[0,0,3]  c46       -10000000
    y[0,0,3]  c49       -10000000
    y[0,0,3]  c50       -10000000
    y[0,0,3]  c53       -10000000
    y[0,0,3]  c54       -10000000
    y[0,0,4]  c0        -160
    y[0,0,4]  c1        1
    y[0,0,4]  c14       -10000000
    y[0,0,4]  c43       -10000000
    y[0,0,4]  c44       -10000000
    y[0,0,4]  c47       -10000000
    y[0,0,4]  c48       -10000000
    y[0,0,4]  c51       -10000000
    y[0,0,4]  c52       -10000000
    y[0,1,1]  c2        1
    y[0,1,1]  c15       -10000000
    y[0,1,1]  c33       -130
    y[0,1,1]  c55       -10000000
    y[0,1,1]  c56       -10000000
    y[0,1,1]  c59       -10000000
    y[0,1,1]  c60       -10000000
    y[0,1,1]  c63       -10000000
    y[0,1,1]  c64       -10000000
    y[0,1,3]  c2        1
    y[0,1,3]  c16       -10000000
    y[0,1,3]  c33       -140
    y[0,1,3]  c41       -10000000
    y[0,1,3]  c42       -10000000
    y[0,1,3]  c53       -10000000
    y[0,1,3]  c54       -10000000
    y[0,1,3]  c57       -10000000
    y[0,1,3]  c58       -10000000
    y[0,1,3]  c61       -10000000
    y[0,1,3]  c62       -10000000
    y[0,2,0]  c3        1
    y[0,2,0]  c17       -10000000
    y[0,2,0]  c34       -147
    y[0,2,0]  c65       -10000000
    y[0,2,0]  c66       -10000000
    y[0,2,0]  c67       -10000000
    y[0,2,0]  c68       -10000000
    y[0,2,0]  c69       -10000000
    y[0,2,0]  c70       -10000000
    y[0,2,0]  c109      -480
    y[1,0,4]  c0        -178
    y[1,0,4]  c4        1
    y[1,0,4]  c18       -10000000
    y[1,0,4]  c43       -10000000
    y[1,0,4]  c44       -10000000
    y[1,0,4]  c71       -10000000
    y[1,0,4]  c72       -10000000
    y[1,0,4]  c73       -10000000
    y[1,0,4]  c74       -10000000
    y[1,1,1]  c5        1
    y[1,1,1]  c19       -10000000
    y[1,1,1]  c35       -66
    y[1,1,1]  c55       -10000000
    y[1,1,1]  c56       -10000000
    y[1,1,1]  c79       -10000000
    y[1,1,1]  c80       -10000000
    y[1,1,1]  c83       -10000000
    y[1,1,1]  c84       -10000000
    y[1,1,2]  c5        1
    y[1,1,2]  c20       -10000000
    y[1,1,2]  c35       -87
    y[1,1,2]  c75       -10000000
    y[1,1,2]  c76       -10000000
    y[1,1,2]  c77       -10000000
    y[1,1,2]  c78       -10000000
    y[1,1,2]  c81       -10000000
    y[1,1,2]  c82       -10000000
    y[1,1,2]  c85       -10000000
    y[1,1,2]  c86       -10000000
    y[1,2,0]  c6        1
    y[1,2,0]  c21       -10000000
    y[1,2,0]  c36       -214
    y[1,2,0]  c65       -10000000
    y[1,2,0]  c66       -10000000
    y[1,2,0]  c89       -10000000
    y[1,2,0]  c90       -10000000
    y[1,2,0]  c93       -10000000
    y[1,2,0]  c94       -10000000
    y[1,2,0]  c114      -480
    y[1,2,2]  c6        1
    y[1,2,2]  c22       -10000000
    y[1,2,2]  c36       -150
    y[1,2,2]  c75       -10000000
    y[1,2,2]  c76       -10000000
    y[1,2,2]  c85       -10000000
    y[1,2,2]  c86       -10000000
    y[1,2,2]  c87       -10000000
    y[1,2,2]  c88       -10000000
    y[1,2,2]  c91       -10000000
    y[1,2,2]  c92       -10000000
    y[1,2,2]  c116      -480
    y[2,0,3]  c0        -190
    y[2,0,3]  c7        1
    y[2,0,3]  c23       -10000000
    y[2,0,3]  c45       -10000000
    y[2,0,3]  c46       -10000000
    y[2,0,3]  c57       -10000000
    y[2,0,3]  c58       -10000000
    y[2,0,3]  c95       -10000000
    y[2,0,3]  c96       -10000000
    y[2,0,4]  c0        -100
    y[2,0,4]  c7        1
    y[2,0,4]  c24       -10000000
    y[2,0,4]  c47       -10000000
    y[2,0,4]  c48       -10000000
    y[2,0,4]  c71       -10000000
    y[2,0,4]  c72       -10000000
    y[2,0,4]  c97       -10000000
    y[2,0,4]  c98       -10000000
    y[2,1,2]  c8        1
    y[2,1,2]  c25       -10000000
    y[2,1,2]  c37       -180
    y[2,1,2]  c77       -10000000
    y[2,1,2]  c78       -10000000
    y[2,1,2]  c87       -10000000
    y[2,1,2]  c88       -10000000
    y[2,1,2]  c99       -10000000
    y[2,1,2]  c100      -10000000
    y[2,2,0]  c9        1
    y[2,2,0]  c26       -10000000
    y[2,2,0]  c38       -87
    y[2,2,0]  c67       -10000000
    y[2,2,0]  c68       -10000000
    y[2,2,0]  c89       -10000000
    y[2,2,0]  c90       -10000000
    y[2,2,0]  c101      -10000000
    y[2,2,0]  c102      -10000000
    y[2,2,0]  c121      -480
    y[2,2,1]  c9        1
    y[2,2,1]  c27       -10000000
    y[2,2,1]  c38       -62
    y[2,2,1]  c59       -10000000
    y[2,2,1]  c60       -10000000
    y[2,2,1]  c79       -10000000
    y[2,2,1]  c80       -10000000
    y[2,2,1]  c103      -10000000
    y[2,2,1]  c104      -10000000
    y[2,2,1]  c123      -480
    y[3,0,2]  c0        -136
    y[3,0,2]  c10       1
    y[3,0,2]  c28       -10000000
    y[3,0,2]  c81       -10000000
    y[3,0,2]  c82       -10000000
    y[3,0,2]  c91       -10000000
    y[3,0,2]  c92       -10000000
    y[3,0,2]  c99       -10000000
    y[3,0,2]  c100      -10000000
    y[3,0,3]  c0        -145
    y[3,0,3]  c10       1
    y[3,0,3]  c29       -10000000
    y[3,0,3]  c49       -10000000
    y[3,0,3]  c50       -10000000
    y[3,0,3]  c61       -10000000
    y[3,0,3]  c62       -10000000
    y[3,0,3]  c95       -10000000
    y[3,0,3]  c96       -10000000
    y[3,1,4]  c11       1
    y[3,1,4]  c30       -10000000
    y[3,1,4]  c39       -173
    y[3,1,4]  c51       -10000000
    y[3,1,4]  c52       -10000000
    y[3,1,4]  c73       -10000000
    y[3,1,4]  c74       -10000000
    y[3,1,4]  c97       -10000000
    y[3,1,4]  c98       -10000000
    y[3,2,0]  c12       1
    y[3,2,0]  c31       -10000000
    y[3,2,0]  c40       -87
    y[3,2,0]  c69       -10000000
    y[3,2,0]  c70       -10000000
    y[3,2,0]  c93       -10000000
    y[3,2,0]  c94       -10000000
    y[3,2,0]  c101      -10000000
    y[3,2,0]  c102      -10000000
    y[3,2,0]  c128      -480
    y[3,2,1]  c12       1
    y[3,2,1]  c32       -10000000
    y[3,2,1]  c40       -65
    y[3,2,1]  c63       -10000000
    y[3,2,1]  c64       -10000000
    y[3,2,1]  c83       -10000000
    y[3,2,1]  c84       -10000000
    y[3,2,1]  c103      -10000000
    y[3,2,1]  c104      -10000000
    y[3,2,1]  c130      -480
    x[0,0,0,0]  OBJ       0
    x[0,0,0,1]  c41       10000000
    x[0,0,0,1]  c42       -10000000
    x[0,0,0,2]  OBJ       0
    x[0,0,1,0]  c43       10000000
    x[0,0,1,0]  c44       -10000000
    x[0,0,1,1]  OBJ       0
    x[0,0,1,2]  OBJ       0
    x[0,0,2,0]  c45       10000000
    x[0,0,2,0]  c46       -10000000
    x[0,0,2,0]  c47       10000000
    x[0,0,2,0]  c48       -10000000
    x[0,0,2,1]  OBJ       0
    x[0,0,2,2]  OBJ       0
    x[0,0,3,0]  c49       10000000
    x[0,0,3,0]  c50       -10000000
    x[0,0,3,1]  c51       10000000
    x[0,0,3,1]  c52       -10000000
    x[0,0,3,2]  OBJ       0
    x[0,1,0,0]  c53       10000000
    x[0,1,0,0]  c54       -10000000
    x[0,1,0,1]  OBJ       0
    x[0,1,0,2]  OBJ       0
    x[0,1,1,0]  OBJ       0
    x[0,1,1,1]  c55       10000000
    x[0,1,1,1]  c56       -10000000
    x[0,1,1,2]  OBJ       0
    x[0,1,2,0]  c57       10000000
    x[0,1,2,0]  c58       -10000000
    x[0,1,2,1]  OBJ       0
    x[0,1,2,2]  c59       10000000
    x[0,1,2,2]  c60       -10000000
    x[0,1,3,0]  c61       10000000
    x[0,1,3,0]  c62       -10000000
    x[0,1,3,1]  OBJ       0
    x[0,1,3,2]  c63       10000000
    x[0,1,3,2]  c64       -10000000
    x[0,2,0,0]  OBJ       0
    x[0,2,0,1]  OBJ       0
    x[0,2,0,2]  OBJ       0
    x[0,2,1,0]  OBJ       0
    x[0,2,1,1]  OBJ       0
    x[0,2,1,2]  c65       10000000
    x[0,2,1,2]  c66       -10000000
    x[0,2,2,0]  OBJ       0
    x[0,2,2,1]  OBJ       0
    x[0,2,2,2]  c67       10000000
    x[0,2,2,2]  c68       -10000000
    x[0,2,3,0]  OBJ       0
    x[0,2,3,1]  OBJ       0
    x[0,2,3,2]  c69       10000000
    x[0,2,3,2]  c70       -10000000
    x[1,0,0,0]  OBJ       0
    x[1,0,0,1]  OBJ       0
    x[1,0,0,2]  OBJ       0
    x[1,0,1,0]  OBJ       0
    x[1,0,1,1]  OBJ       0
    x[1,0,1,2]  OBJ       0
    x[1,0,2,0]  c71       10000000
    x[1,0,2,0]  c72       -10000000
    x[1,0,2,1]  OBJ       0
    x[1,0,2,2]  OBJ       0
    x[1,0,3,0]  OBJ       0
    x[1,0,3,1]  c73       10000000
    x[1,0,3,1]  c74       -10000000
    x[1,0,3,2]  OBJ       0
    x[1,1,0,0]  OBJ       0
    x[1,1,0,1]  OBJ       0
    x[1,1,0,2]  OBJ       0
    x[1,1,1,0]  OBJ       0
    x[1,1,1,1]  OBJ       0
    x[1,1,1,2]  c75       10000000
    x[1,1,1,2]  c76       -10000000
    x[1,1,2,0]  OBJ       0
    x[1,1,2,1]  c77       10000000
    x[1,1,2,1]  c78       -10000000
    x[1,1,2,2]  c79       10000000
    x[1,1,2,2]  c80       -10000000
    x[1,1,3,0]  c81       10000000
    x[1,1,3,0]  c82       -10000000
    x[1,1,3,1]  OBJ       0
    x[1,1,3,2]  c83       10000000
    x[1,1,3,2]  c84       -10000000
    x[1,2,0,0]  OBJ       0
    x[1,2,0,1]  OBJ       0
    x[1,2,0,2]  OBJ       0
    x[1,2,1,0]  OBJ       0
    x[1,2,1,1]  c85       10000000
    x[1,2,1,1]  c86       -10000000
    x[1,2,1,2]  OBJ       0
    x[1,2,2,0]  OBJ       0
    x[1,2,2,1]  c87       10000000
    x[1,2,2,1]  c88       -10000000
    x[1,2,2,2]  c89       10000000
    x[1,2,2,2]  c90       -10000000
    x[1,2,3,0]  c91       10000000
    x[1,2,3,0]  c92       -10000000
    x[1,2,3,1]  OBJ       0
    x[1,2,3,2]  c93       10000000
    x[1,2,3,2]  c94       -10000000
    x[2,0,0,0]  OBJ       0
    x[2,0,0,1]  OBJ       0
    x[2,0,0,2]  OBJ       0
    x[2,0,1,0]  OBJ       0
    x[2,0,1,1]  OBJ       0
    x[2,0,1,2]  OBJ       0
    x[2,0,2,0]  OBJ       0
    x[2,0,2,1]  OBJ       0
    x[2,0,2,2]  OBJ       0
    x[2,0,3,0]  c95       10000000
    x[2,0,3,0]  c96       -10000000
    x[2,0,3,1]  c97       10000000
    x[2,0,3,1]  c98       -10000000
    x[2,0,3,2]  OBJ       0
    x[2,1,0,0]  OBJ       0
    x[2,1,0,1]  OBJ       0
    x[2,1,0,2]  OBJ       0
    x[2,1,1,0]  OBJ       0
    x[2,1,1,1]  OBJ       0
    x[2,1,1,2]  OBJ       0
    x[2,1,2,0]  OBJ       0
    x[2,1,2,1]  OBJ       0
    x[2,1,2,2]  OBJ       0
    x[2,1,3,0]  c99       10000000
    x[2,1,3,0]  c100      -10000000
    x[2,1,3,1]  OBJ       0
    x[2,1,3,2]  OBJ       0
    x[2,2,0,0]  OBJ       0
    x[2,2,0,1]  OBJ       0
    x[2,2,0,2]  OBJ       0
    x[2,2,1,0]  OBJ       0
    x[2,2,1,1]  OBJ       0
    x[2,2,1,2]  OBJ       0
    x[2,2,2,0]  OBJ       0
    x[2,2,2,1]  OBJ       0
    x[2,2,2,2]  OBJ       0
    x[2,2,3,0]  OBJ       0
    x[2,2,3,1]  OBJ       0
    x[2,2,3,2]  c101      10000000
    x[2,2,3,2]  c102      -10000000
    x[2,2,3,2]  c103      10000000
    x[2,2,3,2]  c104      -10000000
    x[3,0,0,0]  OBJ       0
    x[3,0,0,1]  OBJ       0
    x[3,0,0,2]  OBJ       0
    x[3,0,1,0]  OBJ       0
    x[3,0,1,1]  OBJ       0
    x[3,0,1,2]  OBJ       0
    x[3,0,2,0]  OBJ       0
    x[3,0,2,1]  OBJ       0
    x[3,0,2,2]  OBJ       0
    x[3,0,3,0]  OBJ       0
    x[3,0,3,1]  OBJ       0
    x[3,0,3,2]  OBJ       0
    x[3,1,0,0]  OBJ       0
    x[3,1,0,1]  OBJ       0
    x[3,1,0,2]  OBJ       0
    x[3,1,1,0]  OBJ       0
    x[3,1,1,1]  OBJ       0
    x[3,1,1,2]  OBJ       0
    x[3,1,2,0]  OBJ       0
    x[3,1,2,1]  OBJ       0
    x[3,1,2,2]  OBJ       0
    x[3,1,3,0]  OBJ       0
    x[3,1,3,1]  OBJ       0
    x[3,1,3,2]  OBJ       0
    x[3,2,0,0]  OBJ       0
    x[3,2,0,1]  OBJ       0
    x[3,2,0,2]  OBJ       0
    x[3,2,1,0]  OBJ       0
    x[3,2,1,1]  OBJ       0
    x[3,2,1,2]  OBJ       0
    x[3,2,2,0]  OBJ       0
    x[3,2,2,1]  OBJ       0
    x[3,2,2,2]  OBJ       0
    x[3,2,3,0]  OBJ       0
    x[3,2,3,1]  OBJ       0
    x[3,2,3,2]  OBJ       0
    s[0,0,3]  c0        -1
    s[0,0,3]  c13       1
    s[0,0,3]  c33       1
    s[0,0,3]  c41       -1
    s[0,0,3]  c42       1
    s[0,0,3]  c45       -1
    s[0,0,3]  c46       1
    s[0,0,3]  c49       -1
    s[0,0,3]  c50       1
    s[0,0,3]  c53       1
    s[0,0,3]  c54       -1
    s[0,0,3]  c105      1
    s[0,0,4]  c0        -1
    s[0,0,4]  c14       1
    s[0,0,4]  c33       1
    s[0,0,4]  c43       -1
    s[0,0,4]  c44       1
    s[0,0,4]  c47       -1
    s[0,0,4]  c48       1
    s[0,0,4]  c51       -1
    s[0,0,4]  c52       1
    s[0,0,4]  c106      1
    s[0,1,1]  c15       1
    s[0,1,1]  c33       -1
    s[0,1,1]  c34       1
    s[0,1,1]  c55       -1
    s[0,1,1]  c56       1
    s[0,1,1]  c59       -1
    s[0,1,1]  c60       1
    s[0,1,1]  c63       -1
    s[0,1,1]  c64       1
    s[0,1,1]  c107      1
    s[0,1,3]  c16       1
    s[0,1,3]  c33       -1
    s[0,1,3]  c34       1
    s[0,1,3]  c41       1
    s[0,1,3]  c42       -1
    s[0,1,3]  c53       -1
    s[0,1,3]  c54       1
    s[0,1,3]  c57       -1
    s[0,1,3]  c58       1
    s[0,1,3]  c61       -1
    s[0,1,3]  c62       1
    s[0,1,3]  c108      1
    s[0,2,0]  c17       1
    s[0,2,0]  c34       -1
    s[0,2,0]  c65       -1
    s[0,2,0]  c66       1
    s[0,2,0]  c67       -1
    s[0,2,0]  c68       1
    s[0,2,0]  c69       -1
    s[0,2,0]  c70       1
    s[0,2,0]  c109      1
    s[0,2,0]  c110      1
    s[1,0,4]  c0        -1
    s[1,0,4]  c18       1
    s[1,0,4]  c35       1
    s[1,0,4]  c43       1
    s[1,0,4]  c44       -1
    s[1,0,4]  c71       -1
    s[1,0,4]  c72       1
    s[1,0,4]  c73       -1
    s[1,0,4]  c74       1
    s[1,0,4]  c111      1
    s[1,1,1]  c19       1
    s[1,1,1]  c35       -1
    s[1,1,1]  c36       1
    s[1,1,1]  c55       1
    s[1,1,1]  c56       -1
    s[1,1,1]  c79       -1
    s[1,1,1]  c80       1
    s[1,1,1]  c83       -1
    s[1,1,1]  c84       1
    s[1,1,1]  c112      1
    s[1,1,2]  c20       1
    s[1,1,2]  c35       -1
    s[1,1,2]  c36       1
    s[1,1,2]  c75       -1
    s[1,1,2]  c76       1
    s[1,1,2]  c77       -1
    s[1,1,2]  c78       1
    s[1,1,2]  c81       -1
    s[1,1,2]  c82       1
    s[1,1,2]  c85       1
    s[1,1,2]  c86       -1
    s[1,1,2]  c113      1
    s[1,2,0]  c21       1
    s[1,2,0]  c36       -1
    s[1,2,0]  c65       1
    s[1,2,0]  c66       -1
    s[1,2,0]  c89       -1
    s[1,2,0]  c90       1
    s[1,2,0]  c93       -1
    s[1,2,0]  c94       1
    s[1,2,0]  c114      1
    s[1,2,0]  c115      1
    s[1,2,2]  c22       1
    s[1,2,2]  c36       -1
    s[1,2,2]  c75       1
    s[1,2,2]  c76       -1
    s[1,2,2]  c85       -1
    s[1,2,2]  c86       1
    s[1,2,2]  c87       -1
    s[1,2,2]  c88       1
    s[1,2,2]  c91       -1
    s[1,2,2]  c92       1
    s[1,2,2]  c116      1
    s[1,2,2]  c117      1
    s[2,0,3]  c0        -1
    s[2,0,3]  c23       1
    s[2,0,3]  c37       1
    s[2,0,3]  c45       1
    s[2,0,3]  c46       -1
    s[2,0,3]  c57       1
    s[2,0,3]  c58       -1
    s[2,0,3]  c95       -1
    s[2,0,3]  c96       1
    s[2,0,3]  c118      1
    s[2,0,4]  c0        -1
    s[2,0,4]  c24       1
    s[2,0,4]  c37       1
    s[2,0,4]  c47       1
    s[2,0,4]  c48       -1
    s[2,0,4]  c71       1
    s[2,0,4]  c72       -1
    s[2,0,4]  c97       -1
    s[2,0,4]  c98       1
    s[2,0,4]  c119      1
    s[2,1,2]  c25       1
    s[2,1,2]  c37       -1
    s[2,1,2]  c38       1
    s[2,1,2]  c77       1
    s[2,1,2]  c78       -1
    s[2,1,2]  c87       1
    s[2,1,2]  c88       -1
    s[2,1,2]  c99       -1
    s[2,1,2]  c100      1
    s[2,1,2]  c120      1
    s[2,2,0]  c26       1
    s[2,2,0]  c38       -1
    s[2,2,0]  c67       1
    s[2,2,0]  c68       -1
    s[2,2,0]  c89       1
    s[2,2,0]  c90       -1
    s[2,2,0]  c101      -1
    s[2,2,0]  c102      1
    s[2,2,0]  c121      1
    s[2,2,0]  c122      1
    s[2,2,1]  c27       1
    s[2,2,1]  c38       -1
    s[2,2,1]  c59       1
    s[2,2,1]  c60       -1
    s[2,2,1]  c79       1
    s[2,2,1]  c80       -1
    s[2,2,1]  c103      -1
    s[2,2,1]  c104      1
    s[2,2,1]  c123      1
    s[2,2,1]  c124      1
    s[3,0,2]  c0        -1
    s[3,0,2]  c28       1
    s[3,0,2]  c39       1
    s[3,0,2]  c81       1
    s[3,0,2]  c82       -1
    s[3,0,2]  c91       1
    s[3,0,2]  c92       -1
    s[3,0,2]  c99       1
    s[3,0,2]  c100      -1
    s[3,0,2]  c125      1
    s[3,0,3]  c0        -1
    s[3,0,3]  c29       1
    s[3,0,3]  c39       1
    s[3,0,3]  c49       1
    s[3,0,3]  c50       -1
    s[3,0,3]  c61       1
    s[3,0,3]  c62       -1
    s[3,0,3]  c95       1
    s[3,0,3]  c96       -1
    s[3,0,3]  c126      1
    s[3,1,4]  c30       1
    s[3,1,4]  c39       -1
    s[3,1,4]  c40       1
    s[3,1,4]  c51       1
    s[3,1,4]  c52       -1
    s[3,1,4]  c73       1
    s[3,1,4]  c74       -1
    s[3,1,4]  c97       1
    s[3,1,4]  c98       -1
    s[3,1,4]  c127      1
    s[3,2,0]  c31       1
    s[3,2,0]  c40       -1
    s[3,2,0]  c69       1
    s[3,2,0]  c70       -1
    s[3,2,0]  c93       1
    s[3,2,0]  c94       -1
    s[3,2,0]  c101      1
    s[3,2,0]  c102      -1
    s[3,2,0]  c128      1
    s[3,2,0]  c129      1
    s[3,2,1]  c32       1
    s[3,2,1]  c40       -1
    s[3,2,1]  c63       1
    s[3,2,1]  c64       -1
    s[3,2,1]  c83       1
    s[3,2,1]  c84       -1
    s[3,2,1]  c103      1
    s[3,2,1]  c104      -1
    s[3,2,1]  c130      1
    s[3,2,1]  c131      1
    Z_FO      OBJ       1
    Z_FO      c0        1
    MARKER    'MARKER'                 'INTEND'
RHS
    RHS1      c1        1
    RHS1      c2        1
    RHS1      c3        1
    RHS1      c4        1
    RHS1      c5        1
    RHS1      c6        1
    RHS1      c7        1
    RHS1      c8        1
    RHS1      c9        1
    RHS1      c10       1
    RHS1      c11       1
    RHS1      c12       1
    RHS1      c41       -19999724
    RHS1      c42       -29999714
    RHS1      c43       -19999515
    RHS1      c44       -29999662
    RHS1      c45       -19999250
    RHS1      c46       -29999683
    RHS1      c47       -19999436
    RHS1      c48       -29999116
    RHS1      c49       -19999265
    RHS1      c50       -29999565
    RHS1      c51       -19999567
    RHS1      c52       -29999395
    RHS1      c53       -19999714
    RHS1      c54       -29999724
    RHS1      c55       -19999680
    RHS1      c56       -29999831
    RHS1      c57       -19999678
    RHS1      c58       -29999474
    RHS1      c59       -19999205
    RHS1      c60       -29999575
    RHS1      c61       -19999532
    RHS1      c62       -29999549
    RHS1      c63       -19999578
    RHS1      c64       -29999755
    RHS1      c65       -19999739
    RHS1      c66       -29999345
    RHS1      c67       -19999722
    RHS1      c68       -29999679
    RHS1      c69       -19999574
    RHS1      c70       -29999537
    RHS1      c71       -19999390
    RHS1      c72       -29999504
    RHS1      c73       -19999225
    RHS1      c74       -29999027
    RHS1      c75       -19999776
    RHS1      c76       -29999379
    RHS1      c77       -19999718
    RHS1      c78       -29999649
    RHS1      c79       -19999089
    RHS1      c80       -29999575
    RHS1      c81       -19999826
    RHS1      c82       -29999614
    RHS1      c83       -19999481
    RHS1      c84       -29999520
    RHS1      c85       -19999379
    RHS1      c86       -29999776
    RHS1      c87       -19999394
    RHS1      c88       -29999405
    RHS1      c89       -19999608
    RHS1      c90       -29999710
    RHS1      c91       -19999265
    RHS1      c92       -29998969
    RHS1      c93       -19999183
    RHS1      c94       -29999535
    RHS1      c95       -19999634
    RHS1      c96       -29999555
    RHS1      c97       -19999508
    RHS1      c98       -29999673
    RHS1      c99       -19999452
    RHS1      c100      -29999471
    RHS1      c101      -19999633
    RHS1      c102      -29999168
    RHS1      c103      -19999785
    RHS1      c104      -29999853
BOUNDS
 BV BND1      y[0,0,3]
 BV BND1      y[0,0,4]
 BV BND1      y[0,1,1]
 BV BND1      y[0,1,3]
 BV BND1      y[0,2,0]
 BV BND1      y[1,0,4]
 BV BND1      y[1,1,1]
 BV BND1      y[1,1,2]
 BV BND1      y[1,2,0]
 BV BND1      y[1,2,2]
 BV BND1      y[2,0,3]
 BV BND1      y[2,0,4]
 BV BND1      y[2,1,2]
 BV BND1      y[2,2,0]
 BV BND1      y[2,2,1]
 BV BND1      y[3,0,2]
 BV BND1      y[3,0,3]
 BV BND1      y[3,1,4]
 BV BND1      y[3,2,0]
 BV BND1      y[3,2,1]
 BV BND1      x[0,0,0,0]
 BV BND1      x[0,0,0,1]
 BV BND1      x[0,0,0,2]
 BV BND1      x[0,0,1,0]
 BV BND1      x[0,0,1,1]
 BV BND1      x[0,0,1,2]
 BV BND1      x[0,0,2,0]
 BV BND1      x[0,0,2,1]
 BV BND1      x[0,0,2,2]
 BV BND1      x[0,0,3,0]
 BV BND1      x[0,0,3,1]
 BV BND1      x[0,0,3,2]
 BV BND1      x[0,1,0,0]
 BV BND1      x[0,1,0,1]
 BV BND1      x[0,1,0,2]
 BV BND1      x[0,1,1,0]
 BV BND1      x[0,1,1,1]
 BV BND1      x[0,1,1,2]
 BV BND1      x[0,1,2,0]
 BV BND1      x[0,1,2,1]
 BV BND1      x[0,1,2,2]
 BV BND1      x[0,1,3,0]
 BV BND1      x[0,1,3,1]
 BV BND1      x[0,1,3,2]
 BV BND1      x[0,2,0,0]
 BV BND1      x[0,2,0,1]
 BV BND1      x[0,2,0,2]
 BV BND1      x[0,2,1,0]
 BV BND1      x[0,2,1,1]
 BV BND1      x[0,2,1,2]
 BV BND1      x[0,2,2,0]
 BV BND1      x[0,2,2,1]
 BV BND1      x[0,2,2,2]
 BV BND1      x[0,2,3,0]
 BV BND1      x[0,2,3,1]
 BV BND1      x[0,2,3,2]
 BV BND1      x[1,0,0,0]
 BV BND1      x[1,0,0,1]
 BV BND1      x[1,0,0,2]
 BV BND1      x[1,0,1,0]
 BV BND1      x[1,0,1,1]
 BV BND1      x[1,0,1,2]
 BV BND1      x[1,0,2,0]
 BV BND1      x[1,0,2,1]
 BV BND1      x[1,0,2,2]
 BV BND1      x[1,0,3,0]
 BV BND1      x[1,0,3,1]
 BV BND1      x[1,0,3,2]
 BV BND1      x[1,1,0,0]
 BV BND1      x[1,1,0,1]
 BV BND1      x[1,1,0,2]
 BV BND1      x[1,1,1,0]
 BV BND1      x[1,1,1,1]
 BV BND1      x[1,1,1,2]
 BV BND1      x[1,1,2,0]
 BV BND1      x[1,1,2,1]
 BV BND1      x[1,1,2,2]
 BV BND1      x[1,1,3,0]
 BV BND1      x[1,1,3,1]
 BV BND1      x[1,1,3,2]
 BV BND1      x[1,2,0,0]
 BV BND1      x[1,2,0,1]
 BV BND1      x[1,2,0,2]
 BV BND1      x[1,2,1,0]
 BV BND1      x[1,2,1,1]
 BV BND1      x[1,2,1,2]
 BV BND1      x[1,2,2,0]
 BV BND1      x[1,2,2,1]
 BV BND1      x[1,2,2,2]
 BV BND1      x[1,2,3,0]
 BV BND1      x[1,2,3,1]
 BV BND1      x[1,2,3,2]
 BV BND1      x[2,0,0,0]
 BV BND1      x[2,0,0,1]
 BV BND1      x[2,0,0,2]
 BV BND1      x[2,0,1,0]
 BV BND1      x[2,0,1,1]
 BV BND1      x[2,0,1,2]
 BV BND1      x[2,0,2,0]
 BV BND1      x[2,0,2,1]
 BV BND1      x[2,0,2,2]
 BV BND1      x[2,0,3,0]
 BV BND1      x[2,0,3,1]
 BV BND1      x[2,0,3,2]
 BV BND1      x[2,1,0,0]
 BV BND1      x[2,1,0,1]
 BV BND1      x[2,1,0,2]
 BV BND1      x[2,1,1,0]
 BV BND1      x[2,1,1,1]
 BV BND1      x[2,1,1,2]
 BV BND1      x[2,1,2,0]
 BV BND1      x[2,1,2,1]
 BV BND1      x[2,1,2,2]
 BV BND1      x[2,1,3,0]
 BV BND1      x[2,1,3,1]
 BV BND1      x[2,1,3,2]
 BV BND1      x[2,2,0,0]
 BV BND1      x[2,2,0,1]
 BV BND1      x[2,2,0,2]
 BV BND1      x[2,2,1,0]
 BV BND1      x[2,2,1,1]
 BV BND1      x[2,2,1,2]
 BV BND1      x[2,2,2,0]
 BV BND1      x[2,2,2,1]
 BV BND1      x[2,2,2,2]
 BV BND1      x[2,2,3,0]
 BV BND1      x[2,2,3,1]
 BV BND1      x[2,2,3,2]
 BV BND1      x[3,0,0,0]
 BV BND1      x[3,0,0,1]
 BV BND1      x[3,0,0,2]
 BV BND1      x[3,0,1,0]
 BV BND1      x[3,0,1,1]
 BV BND1      x[3,0,1,2]
 BV BND1      x[3,0,2,0]
 BV BND1      x[3,0,2,1]
 BV BND1      x[3,0,2,2]
 BV BND1      x[3,0,3,0]
 BV BND1      x[3,0,3,1]
 BV BND1      x[3,0,3,2]
 BV BND1      x[3,1,0,0]
 BV BND1      x[3,1,0,1]
 BV BND1      x[3,1,0,2]
 BV BND1      x[3,1,1,0]
 BV BND1      x[3,1,1,1]
 BV BND1      x[3,1,1,2]
 BV BND1      x[3,1,2,0]
 BV BND1      x[3,1,2,1]
 BV BND1      x[3,1,2,2]
 BV BND1      x[3,1,3,0]
 BV BND1      x[3,1,3,1]
 BV BND1      x[3,1,3,2]
 BV BND1      x[3,2,0,0]
 BV BND1      x[3,2,0,1]
 BV BND1      x[3,2,0,2]
 BV BND1      x[3,2,1,0]
 BV BND1      x[3,2,1,1]
 BV BND1      x[3,2,1,2]
 BV BND1      x[3,2,2,0]
 BV BND1      x[3,2,2,1]
 BV BND1      x[3,2,2,2]
 BV BND1      x[3,2,3,0]
 BV BND1      x[3,2,3,1]
 BV BND1      x[3,2,3,2]
 LI BND1      s[0,0,3]  0
 LI BND1      s[0,0,4]  0
 LI BND1      s[0,1,1]  0
 LI BND1      s[0,1,3]  0
 LI BND1      s[0,2,0]  0
 LI BND1      s[1,0,4]  0
 LI BND1      s[1,1,1]  0
 LI BND1      s[1,1,2]  0
 LI BND1      s[1,2,0]  0
 LI BND1      s[1,2,2]  0
 LI BND1      s[2,0,3]  0
 LI BND1      s[2,0,4]  0
 LI BND1      s[2,1,2]  0
 LI BND1      s[2,2,0]  0
 LI BND1      s[2,2,1]  0
 LI BND1      s[3,0,2]  0
 LI BND1      s[3,0,3]  0
 LI BND1      s[3,1,4]  0
 LI BND1      s[3,2,0]  0
 LI BND1      s[3,2,1]  0
 LI BND1      Z_FO      0
ENDATA
